s td 126 20 196
b 1 5 152 171
b 2 18 33 76 97 117 136 171
b 3 28 77 160
b 4 40 70 112
b 5 44 54 79
b 6 62 85 165
b 7 37 81 82 104 112 141 142
b 8 14 77 105 125 131 148 188
b 9 68 109 154
b 10 96 110 147
b 11 27 36 53 145 147 157 167
b 12 54 79 156
b 13 29 48 57 59 73 173 187
b 14 59 86 177
b 15 49 102 126 135 154 191 192
b 16 85 165 195
b 17 23 36 150
b 18 14 60 75
b 19 32 52 78 79
b 20 8 89 132 165
b 21 54 139 149 184
b 22 26 85 161 196
b 23 6 13 36 57 92 93 94 108 122 138 192
b 24 13 35 36 57 92 93 94 122 138 192
b 25 13 36 57 92 93 94 108 122 138 192
b 26 36 57 93 94 176 192
b 27 2 27 48 49 53 54 79 121 123 127 135 164 186 187
b 28 27 48 49 53 54 57 79 120 121 123 127 135 157 164 183 186 187 190 192
b 29 27 48 49 53 54 57 79 120 121 123 126 127 135 157 183 186 187 190 192
b 30 27 29 48 49 53 54 57 79 120 121 123 126 127 135 157 183 187 190
b 31 27 29 48 49 53 54 57 59 73 79 120 121 123 127 135 183 187 190
b 32 11 27 29 48 49 53 54 57 59 73 79 120 121 135 183 187
b 33 11 21 29 48 53 57 59 73 120 183 187
b 34 11 21 29 53 57 59 120 179
b 35 21 29 57 98 120 179
b 36 21 39 57 98 120 179
b 37 27 48 49 53 54 79 102 120 123 126 127 135 154 183 186 187 190 192
b 38 27 48 49 53 54 74 79 102 120 126 135 154 183 186 187 192
b 39 49 74 102 120 126 135 154 158 183 192
b 40 74 120 126 154 158 185 192
b 41 63 74 120 154 158 185 192
b 42 63 120 158 159 169 185 192
b 43 27 36 48 49 53 54 57 79 120 123 127 135 157 164 183 187 190 192
b 44 27 36 48 49 53 54 79 120 123 127 135 147 157 164 167 183 187 190
b 45 27 36 48 49 51 53 54 79 120 135 147 157 164 167 183 187
b 46 27 36 51 53 106 120 147 157 167 183
b 47 36 51 106 120 147 157 174
b 48 36 47 51 106 120 147 174
b 49 36 47 66 103 106 120 174
b 50 27 48 49 53 54 79 123 135 168 183 187
b 51 16 27 48 54 135
b 52 2 27 48 54 79 121 123 127 135 164 180 186
b 53 2 54 79 121 123 127 164 180 184 186
b 54 2 54 79 121 123 127 149 164 184 186
b 55 2 78 79 121 123 127 149 164 184 186
b 56 2 52 78 79 121 127 149 164 184 186
b 57 41 52 78 121 127 149 164 184 186
b 58 49 53 58 79 187
b 59 1 17 22 29 34 45 113 118 126 157
b 60 1 17 29 34 45 113 115 118 126 140 157
b 61 1 29 45 126 157 182
b 62 14 30 56 76 81 83
b 63 14 53 56 76 81 83 114 170
b 64 14 20 25 56 76 80 81 83 114 144 170
b 65 14 20 25 53 56 76 81 83 114 170
b 66 61 84 101 117 128 137 142 162 163 179 188
b 67 87 101 117 142 162 188
b 68 101 117 128 137 142 162 163 179 188
b 69 61 90 101 117 128 137 142 162 163 188
b 70 61 101 117 128 137 142 162 163 179 188
b 71 8 14 33 55 72 77 85 104 111 116 125 131 136 141 148 165 166 181 188 196
b 72 12 14 33 55 72 77 85 104 111 116 125 131 136 141 148 165 166 181 188
b 73 12 14 33 53 55 72 81 85 104 111 116 117 125 131 136 141 165 166 181 188
b 74 12 14 33 53 55 72 76 81 85 104 111 116 117 125 131 136 141 165 181
b 75 12 33 55 72 76 85 97 104 111 116 117 125 131 136 141 165 171 181
b 76 10 33 55 72 76 85 97 104 111 117 125 131 136 141 165 171
b 77 10 33 55 72 76 97 117 124 136 171
b 78 10 72 76 117 124 155 171
b 79 72 76 117 124 155 194
b 80 12 33 53 55 72 81 85 104 116 117 125 131 136 141 142 165 166 181 188
b 81 12 33 37 55 72 81 85 104 112 116 125 131 136 141 142 165 166 181
b 82 33 37 55 67 72 81 85 104 112 125 131 136 141 142 165 166
b 83 37 55 67 72 81 104 112 141 142 146
b 84 67 72 81 112 142 143 146
b 85 67 69 72 81 112 143 146
b 86 69 71 72 81 95 143 146
b 87 8 14 33 55 72 77 85 104 111 125 131 136 141 148 153 165 166 181 188 196
b 88 8 14 33 42 85 104 111 125 131 136 141 148 153 165 166 181 188 196
b 89 8 14 26 42 85 104 111 125 136 148 153 165 166 181 188 196
b 90 8 14 26 104 107 111 125 136 148 153 165 166 181 188 196
b 91 8 14 24 26 107 111 148 153 165 166 181 188 196
b 92 8 24 26 89 107 111 165 166 181 196
b 93 8 24 26 89 100 111 166 181 196
b 94 14 55 64 72 77 125 131 148 153 188
b 95 14 46 64 72 77 153 188
b 96 14 46 64 72 130 188
b 97 14 46 64 72 75 130
b 98 33 85 129 131 141
b 99 33 55 85 104 116 125 131 136 141 151 165
b 100 104 125 136 165 178
b 101 3 49 68 102 135 158
b 102 4 21 48 73 86 187
b 103 7 21 39 98 120 179 189
b 104 9 10 76 97 111 117
b 105 14 15 24 148 153 188
b 106 19 46 64 72 75 130 172
b 107 27 38 53 96 106 167
b 108 11 21 29 48 57 59 73 86 187
b 109 50 74 102 126 186 192
b 110 36 51 65 157 164 167
b 111 49 68 74 102 126 135 154 158 192
b 112 37 67 70 81 104 112 141 142 175
b 113 33 88 97 124 136 152
b 114 37 67 81 91 142 166
b 115 27 36 51 53 96 106 147 157 167
b 116 99 120 158 159 169 185 192
b 117 11 29 57 73 119 121
b 118 31 72 124 133 155 193 194
b 119 31 72 76 124 155 194
b 120 10 33 76 97 117 124 136 152 171
b 121 64 125 131 134 148 160
b 122 14 64 77 125 131 148 153 160 188
b 123 36 66 103 106 120 150 174
b 124 43 71 72 81 95 143 146
b 125 37 67 81 104 112 141 142 146 175
b 126 53 117 142 179 188
1 120
2 75
3 122
4 112
5 27
6 71
7 81
8 71
9 111
10 115
11 44
12 27
13 31
14 108
15 37
16 71
17 123
18 97
19 56
20 92
21 54
22 89
23 25
24 25
25 26
26 43
27 28
27 51
27 52
27 58
28 29
28 43
28 50
29 30
29 37
30 61
30 31
31 32
32 117
32 33
33 108
33 34
34 126
34 35
35 36
36 103
37 38
38 109
38 39
39 111
39 40
40 41
41 42
42 116
43 44
44 45
45 110
45 46
46 115
46 47
47 48
48 49
49 123
52 53
53 54
54 55
55 56
56 57
59 60
60 61
62 63
63 65
63 74
64 65
66 70
67 68
68 70
68 126
69 70
71 72
71 87
71 98
71 99
71 100
72 73
73 74
73 80
74 75
75 76
76 104
76 77
77 120
77 78
78 79
79 119
80 126
80 81
81 82
82 114
82 83
83 125
83 84
84 85
85 86
86 124
87 88
87 94
88 89
89 90
90 91
91 105
91 92
92 93
94 122
94 95
95 96
96 97
97 106
101 111
102 108
107 115
112 125
113 120
118 119
121 122
